minizinc/sudoku_problems2/sudoku_p80.dzn
%
% sudoku_p80.dzn
% See http://www.hakank.org/minizinc/sudoku_gcc.mzn
% 
% This problem is problem 80 from
% Gecode's sudoku.cpp
% http://www.gecode.org/gecode-doc-latest/sudoku_8cpp-source.html
% 
x = array2d(1..n, 1..n, [   
% http://janko.at/Raetsel/Sudoku/592.a.htm
% 80
  _,  _,  8,  _, 10,  _, 15,  _, 11,  9,  7,  _,  1,  _,  6,  _,
  1, 11,  7,  9,  _,  _,  _,  6,  _,  _,  _,  _,  _,  8, 14,  _,
  _,  _, 14,  3,  _,  _,  9,  2,  8,  _,  _,  _, 13,  _,  5,  _,
  2,  6,  _,  _,  8,  _, 11,  _,  _,  _,  _,  1,  7,  _,  _,  _,
  9,  1,  _,  _,  6, 10,  2,  _,  _, 11,  3,  _,  _, 13,  _,  _,
  _, 15,  _,  _,  3,  7,  _,  5,  2,  _, 16, 13,  _,  4,  _,  _,
  3,  _,  6,  7,  9,  _,  _,  _,  5,  _, 14, 15,  _,  _,  _, 10,
  4,  _, 11,  _,  _, 15, 12,  _,  _,  1,  6,  _,  _,  _, 16,  5,
  7,  3,  _,  _,  _,  8, 10,  _,  _,  5, 13,  _,  _, 15,  _,  1,
  5,  _,  _,  _, 15, 12,  _,  3,  _,  _,  _,  9,  8, 16,  _, 14,
  _,  _, 15,  _, 13,  5,  _,  1,  3,  _, 10,  8,  _,  _, 11,  _,
  _,  _, 10,  _,  _, 11,  6,  _,  _,  2, 15, 16,  _,  _,  7, 13,
  _,  _,  _,  6, 11,  _,  _,  _,  _, 14,  _,  2,  _,  _,  1, 12,
  _,  4,  _, 15,  _,  _,  _, 10,  1, 13,  _,  _, 16, 14,  _,  _,
  _, 10,  2,  _,  _,  _,  _,  _, 16,  _,  _,  _,  4,  6,  3,  8,
  _,  7,  _, 16,  _,  2,  8, 15,  _,  6,  _,  3,  _, 10,  _,  _
]);

n = 16;


